100
128
251
295
164
347
316
267
190
140
376
278
342
324
237
380
356
115
355
170
121
341
303
183
166
117
259
203
255
134
287
301
215
190
248
279
138
165
199
228
205
175
106
199
151
243
179
107
310
186
230
384
127
185
219
193
202
378
297
109
165
236
310
280
326
211
211
116
276
362
296
133
189
302
284
293
197
115
352
160
201
182
196
280
267
315
126
122
345
375
131
110
211
394
342
189
205
206
206
133
220
102
166
310
357
102
203
206
117
155
266
218
290
114
150
209
329
176
231
275
151
315
337
314
361
332
104
218
138
262
251
258
316
369
220
273
371
375
380
140
183
298
258
373
313
360
234
294
189
118
221
292
385
211
207
346
143
263
164
233
177
367
143
393
336
264
319
359
291
299
399
374
249
309
399
214
321
234
109
110
304
282
303
289
393
110
235
136
325
351
321
102
318
365
147
306
281
366
265
172
265
0
